(set-info :origin "driver benchmark extracted from Microsoft SDV")
(set-logic HORN)
(declare-fun Proc4 (Int (Array Int Int) Int Int Int Bool Int) Bool)
(declare-fun Proc0 (Int (Array Int Int) Int Int Int Bool Int Int Int Int) Bool)
(declare-fun Proc12 (Int (Array Int Int) Int Int Int Bool Int Int) Bool)
(declare-fun Proc1 (Int (Array Int Int) Int Int Int Bool Int Int Int Int) Bool)
(declare-fun Proc15
             (Int
              (Array Int Int)
              Int
              Int
              Int
              Bool
              Int
              Int
              Int
              Int
              Int
              (Array Int Int)
              Int)
             Bool)
(declare-fun Proc22 (Int (Array Int Int) Int Int Int Bool) Bool)
(declare-fun Proc10 (Int (Array Int Int) Int Int Int Bool) Bool)
(declare-fun Proc7 (Int (Array Int Int) Int Int Int Bool Int) Bool)
(declare-fun Proc17
             (Int (Array Int Int) Int Int Int Bool Int Int (Array Int Int) Int)
             Bool)
(declare-fun Proc6 (Int (Array Int Int) Int Int Int Bool Int Int Int Int) Bool)
(declare-fun Proc21
             (Int
              (Array Int Int)
              Int
              Int
              Int
              Bool
              Int
              Int
              Int
              Int
              Int
              (Array Int Int)
              Int)
             Bool)
(declare-fun Proc5 (Int (Array Int Int) Int Int Int Bool Int Int) Bool)
(declare-fun Proc13 (Int (Array Int Int) Int Int Int Bool) Bool)
(declare-fun Proc2
             (Int (Array Int Int) Int Int Int Bool Int Int Int Int Int)
             Bool)
(declare-fun Proc20 (Int (Array Int Int) Int Int Int Bool) Bool)
(declare-fun Proc11 (Int (Array Int Int) Int Int Int Bool Int) Bool)
(declare-fun Proc23
             (Int
              (Array Int Int)
              Int
              Int
              Int
              Bool
              Int
              Bool
              Int
              Int
              Int
              Int
              (Array Int Int))
             Bool)
(declare-fun Proc8 (Int (Array Int Int) Int Int Int Bool Int Int) Bool)
(declare-fun Proc16 (Int (Array Int Int) Int Int Int Bool Int) Bool)
(declare-fun Proc9 (Int (Array Int Int) Int Int Int Bool Int Int) Bool)
(declare-fun Proc18
             (Int
              (Array Int Int)
              Int
              Int
              Int
              Bool
              Int
              Int
              Int
              Int
              Bool
              Int
              (Array Int Int))
             Bool)
(declare-fun Proc14 (Int (Array Int Int) Int Int Int Bool Int Int) Bool)
(declare-fun Proc19 (Int (Array Int Int) Int Int Int Bool) Bool)
(declare-fun Proc3
             (Int
              (Array Int Int)
              Int
              Int
              Int
              Bool
              Int
              Int
              Int
              Int
              Int
              Int
              Int
              Int)
             Bool)
(assert (forall ((A Int)
         (B Int)
         (C Int)
         (D Int)
         (E (Array Int Int))
         (F Int)
         (G Int)
         (H Int)
         (I Int)
         (J Int)
         (K Int)
         (L Int)
         (M Int)
         (N Int)
         (O Int)
         (P Int)
         (Q Int)
         (R Int)
         (S Int)
         (T Int)
         (U Int)
         (V Int)
         (W Int)
         (X Int)
         (Y Int)
         (Z Bool))
  (let ((a!1 (and (not (<= W (+ 1 Y))) (not (<= W X))))
        (a!2 (and (not (<= U (+ 1 V))) (not (<= U W))))
        (a!3 (and (not (<= S (+ 1 T))) (not (<= S U))))
        (a!4 (and (not (<= Q (+ 1 R))) (not (<= Q S))))
        (a!5 (and (not (<= O (+ 1 P))) (not (<= O Q)))))
  (let ((a!6 (or (not Z)
                 (not (= Y X))
                 (not a!1)
                 (not (= V W))
                 (not a!2)
                 (not (= T U))
                 (not a!3)
                 (not (= R S))
                 (not a!4)
                 (not (= P Q))
                 (not a!5)
                 (= N 0)
                 (= M 0)
                 (= L 0)
                 (= K 0)
                 (= J 0)
                 (= I 0)
                 (= H 0)
                 (not (and (= G 0) (= F O))))))
    (=> (not a!6) (Proc0 X E D C B Z N A G F))))))
(assert (forall ((A Int)
         (B Int)
         (C Int)
         (D Int)
         (E (Array Int Int))
         (F Int)
         (G Int)
         (H Int)
         (I Int)
         (J Int)
         (K Int)
         (L Int)
         (M Int)
         (N Int)
         (O Int)
         (P Int)
         (Z Bool))
  (let ((a!1 (and (not (<= N (+ 1 P))) (not (<= N O))))
        (a!2 (not (and (= D G) (= C I) (= B H)))))
  (let ((a!3 (or (not (and (= H 1) (= G F))) a!2))
        (a!4 (and (or (= J L) (not (= G 0)) a!2)
                  (or (not (= J L)) (not (= G J)) a!2))))
  (let ((a!5 (or (not Z)
                 (not (= P O))
                 (not a!1)
                 (not (Proc1 N E M L K Z P J I H))
                 (and a!3 (or (= H 1) a!4)))))
    (=> (not a!5) (Proc2 O E M L K Z A J D C B)))))))
(assert (forall ((A Int)
         (B Int)
         (C Int)
         (D Int)
         (E (Array Int Int))
         (F Int)
         (G Int)
         (H Int)
         (I Int)
         (J Int)
         (K Int)
         (L Int)
         (M Int)
         (N Int)
         (O Int)
         (P Int)
         (Q Int)
         (R Int)
         (Z Bool))
  (let ((a!1 (not (and (= O (- 1073741823)) (= Q O))))
        (a!2 (not (and (= N (- 1073741670)) (= Q N))))
        (a!3 (not (and (= M (- 1073741771)) (= Q M))))
        (a!4 (not (and (= L (- 1073741824)) (= Q L)))))
  (let ((a!5 (and (or (= R 0) (not (= Q 0)) (not (= P Q)))
                  (or (= R 0) a!1 (not (= P Q)))
                  (or (= R 0) a!2 (not (= P Q)))
                  (or (= R 0) a!3 (not (= P Q)))
                  (or (= R 0) a!4 (not (= P Q))))))
    (=> (not (or (not Z) a!5)) (Proc3 K E J I H Z G F D C B A R P))))))
(assert (forall ((A Int) (B Int) (C Int) (D Int) (E (Array Int Int)) (F Int) (Z Bool))
  (=> Z (Proc4 F E D C B Z A))))
(assert (forall ((A Int)
         (B Int)
         (C Int)
         (D Int)
         (E (Array Int Int))
         (F Int)
         (G Int)
         (H Int)
         (I Int)
         (J Int)
         (K Int)
         (L Int)
         (Z Bool))
  (let ((a!1 (and (not (<= J (+ 1 L))) (not (<= J K)))))
  (let ((a!2 (or (not Z)
                 (not (= L K))
                 (not a!1)
                 (not (Proc5 J E I H G Z L F))
                 (not (and (= D J) (= C F))))))
    (=> (not a!2) (Proc6 K E I H G Z B A D C))))))
(assert (forall ((A Int)
         (B Int)
         (C Int)
         (D Int)
         (E (Array Int Int))
         (F Int)
         (G Int)
         (Z Bool))
  (let ((a!1 (not (or (not Z) (not (= G 1))))))
    (=> a!1 (Proc5 F E D C B Z A G)))))
(assert (forall ((A Int) (B Int) (C Int) (D Int) (E (Array Int Int)) (F Int) (Z Bool))
  (=> false (Proc7 F E D C B Z A))))
(assert (forall ((A Int)
         (B Int)
         (C Int)
         (D Int)
         (E (Array Int Int))
         (F Int)
         (G Int)
         (H Int)
         (I Int)
         (J Int)
         (K Int)
         (L Int)
         (M Int)
         (Z Bool))
  (let ((a!1 (or (= M 0)
                 (not (and (= L K) (= J I)))
                 (not (and (= H L) (= G J)))))
        (a!2 (or (not (= F D))
                 (not (and (= L K) (= J I)))
                 (not (and (= H L) (= G J)))))
        (a!3 (or (not (= A 1))
                 (not (and (= L B) (= J A)))
                 (not (and (= H L) (= G J)))))
        (a!4 (or (= A 1)
                 (not (and (= L B) (= J A)))
                 (not (and (= H L) (= G J))))))
  (let ((a!5 (and a!2
                  (or (= F D) (not (Proc6 K E M D I Z C F B A)) (and a!3 a!4)))))
  (let ((a!6 (and a!1 (or (not (= M 0)) a!5))))
    (=> (not (or (not Z) a!6)) (Proc1 K E M D I Z C F H G)))))))
(assert (forall ((A Int)
         (B Int)
         (C Int)
         (D Int)
         (E (Array Int Int))
         (F Int)
         (G Int)
         (Z Bool))
  (let ((a!1 (not (or (not Z) (not (= G 0))))))
    (=> a!1 (Proc8 F E D C B Z A G)))))
(assert (forall ((A Int)
         (B Int)
         (C Int)
         (D Int)
         (E (Array Int Int))
         (F Int)
         (G Int)
         (H Int)
         (I Int)
         (Z Bool))
  (let ((a!1 (and (not (<= G (+ 1 I))) (not (<= G H)))))
  (let ((a!2 (not (or (not Z)
                      (not (= I H))
                      (not a!1)
                      (not (Proc7 G E F D C Z I))
                      (not (= B G))))))
    (=> a!2 (Proc9 H E F D C Z A B))))))
(assert (forall ((A Int) (B Int) (C Int) (D Int) (E (Array Int Int)) (Z Bool))
  (=> Z (Proc10 D E C B A Z))))
(assert (forall ((A Int)
         (B Int)
         (C Int)
         (D Int)
         (E (Array Int Int))
         (F Int)
         (G Int)
         (Z Bool))
  (let ((a!1 (not (or (not Z) (not (= G F))))))
    (=> a!1 (Proc11 D E C B A Z G)))))
(assert (forall ((A Int)
         (B Int)
         (C Int)
         (D Int)
         (E (Array Int Int))
         (F Int)
         (G Int)
         (Z Bool))
  (let ((a!1 (or (not Z) (not (and (= G 1) (= F 0))))))
    (=> (not a!1) (Proc12 D E C B A Z G F)))))
(assert (forall ((A Int)
         (B Int)
         (C Int)
         (D Int)
         (E (Array Int Int))
         (F Int)
         (G Int)
         (H Int)
         (I Int)
         (J Int)
         (K Int)
         (L Int)
         (M Int)
         (N Int)
         (O Int)
         (P Int)
         (Q Int)
         (R Int)
         (S Int)
         (T Int)
         (U Int)
         (V Int)
         (W Int)
         (X Int)
         (Y Int)
         (Z Bool)
         (A1 (Array Int Int))
         (B1 Bool)
         (C1 (Array Int Int))
         (D1 Bool)
         (E1 Bool)
         (F1 Bool)
         (G1 (Array Int Int))
         (H1 Bool)
         (I1 Int)
         (J1 Int)
         (K1 Int)
         (L1 Int)
         (M1 Int)
         (N1 Int)
         (O1 (Array Int Int))
         (P1 Int)
         (Q1 Int)
         (R1 Int)
         (S1 Int)
         (T1 Int)
         (U1 Bool))
  (let ((a!1 (and (not (<= R1 (+ 4 T1))) (not (<= R1 S1))))
        (a!2 (and (not (<= P1 (+ 1 Q1))) (not (<= P1 R1))))
        (a!3 (not (and (not (= X 0)) H1)))
        (a!4 (and (not (= X 0))
                  (= W (select G1 (+ 4 X)))
                  (Proc2 P1 G1 K1 M1 L1 U1 V W U T S)))
        (a!5 (not (and (= N P) (= M R) (= L K1) E1 (= K Q))))
        (a!7 (and (not (<= D (+ 1 F))) (not (<= D H))))
        (a!8 (not (Proc9 D C1 K1 M1 I U1 F C)))
        (a!9 (not (and (= R C) (= Q I) B1 (= P G))))
        (a!15 (= H1 (= G1 (store O1 (+ 4 X) J1)))))
  (let ((a!6 (or (not (= S 1)) (not (and (= R T) (= Q S) F1 (= P O))) a!5))
        (a!10 (or (not (Proc14 T G1 K1 M1 S U1 J 138))
                  (not (and D1 (= I S) (= H T) (= G Y)))
                  (not (= F H))
                  (not a!7)
                  a!8
                  a!9
                  a!5))
        (a!11 (or (not (Proc4 T G1 K1 M1 S U1 B))
                  (not (= A (- 1073741810)))
                  (not (and D1 (= I S) (= H T) (= G A)))
                  (not (= F H))
                  (not a!7)
                  a!8
                  a!9
                  a!5))
        (a!13 (or (<= 0 Y)
                  (not (and Z (= I L1) (= H P1) (= G Y)))
                  (not (= F H))
                  (not a!7)
                  a!8
                  a!9
                  a!5)))
  (let ((a!12 (or (not (<= 0 Y))
                  a!3
                  (= X 0)
                  (not a!4)
                  (and a!6 (or (= S 1) (= X 0) (and a!10 a!11))))))
  (let ((a!14 (not (or (not U1)
                       (not (= T1 S1))
                       (not a!1)
                       (not (= Q1 R1))
                       (not a!2)
                       (not (Proc8 P1 O1 N1 M1 L1 U1 Q1 K1))
                       (not (Proc13 P1 O1 K1 M1 L1 U1))
                       (= J1 0)
                       (not (Proc3 P1 O1 K1 M1 L1 U1 I1 40 0 7 0 0 T1 Y))
                       (and a!12 a!13)))))
    (=> (and a!14
             a!15
             (= F1 (= A1 G1))
             (= E1 (= E A1))
             (= D1 (= C1 G1))
             (= B1 (= A1 C1))
             (= Z (= C1 O1)))
        (Proc15 S1 O1 N1 M1 L1 U1 I1 J1 N M L E K))))))))
(assert (forall ((A Int)
         (B Int)
         (C Int)
         (D Int)
         (E (Array Int Int))
         (F Int)
         (G Int)
         (H Int)
         (I Int)
         (J Int)
         (K Int)
         (L Int)
         (M Int)
         (N Int)
         (O Int)
         (P Int)
         (Q Int)
         (R Int)
         (S Int)
         (T Int)
         (Z Bool)
         (A1 (Array Int Int))
         (B1 Bool)
         (C1 (Array Int Int))
         (D1 Bool)
         (E1 Bool)
         (F1 Bool))
  (let ((a!1 (not (and (not (<= T 0)) (Proc16 T C1 S R Q F1 P))))
        (a!2 (not (and (= G I) (= F K) (= D J) (= C M) (= D1 E1) (= B L) B1))))
  (let ((a!3 (or (= J 0) (not (and (= I H) (not E1))) a!2))
        (a!4 (or (not (and (= J 0) (= Z F1))) (not (and (= I A) (= E1 Z))) a!2)))
  (let ((a!5 (and (or (= J 1) (and a!3 a!4)) (or (not (= J 1)) (and a!3 a!4)))))
  (let ((a!6 (not (or (not F1)
                      a!1
                      (not (Proc12 P C1 S R Q F1 O N))
                      (not (Proc11 P C1 O R N F1 M))
                      (not (Proc10 P C1 O M N F1))
                      (not (Proc17 P C1 O M N F1 L K A1 J))
                      a!5))))
    (=> (and a!6 (= B1 (= E A1))) (Proc18 T C1 S R Q F1 G F D C D1 B E))))))))
(assert (forall ((A Int)
         (B Int)
         (C Int)
         (D Int)
         (E (Array Int Int))
         (F Int)
         (G Int)
         (Z Bool))
  (=> Z (Proc14 G E F D C Z B A))))
(assert (forall ((A Int)
         (B Int)
         (C Int)
         (D Int)
         (E (Array Int Int))
         (F Int)
         (G Int)
         (H Int)
         (I Int)
         (J Int)
         (K Int)
         (L Int)
         (M Int)
         (N Int)
         (O Int)
         (P Int)
         (Q Int)
         (Z Bool)
         (A1 (Array Int Int))
         (B1 Bool)
         (C1 (Array Int Int)))
  (let ((a!1 (not (and (= D G) (= C J) (= B I) Z (= A H)))))
  (let ((a!2 (or (not (and (= H 1) (= G F))) a!1)))
  (let ((a!3 (and a!2
                  (or (= H 1) (not (Proc20 J A1 I O H B1)) (not (= G K)) a!1))))
  (let ((a!4 (not (or (not B1)
                      (not (Proc19 Q C1 P O N B1))
                      (not (Proc15 Q C1 P O N B1 M L K J I A1 H))
                      a!3))))
    (=> (and a!4 (= Z (= E A1))) (Proc21 Q C1 P O N B1 M L D C B E A))))))))
(assert (forall ((A Int) (B Int) (C Int) (D Int) (E (Array Int Int)) (Z Bool))
  (=> Z (Proc13 D E C B A Z))))
(assert (forall ((A Int)
         (B Int)
         (C Int)
         (D Int)
         (E (Array Int Int))
         (F Int)
         (G Int)
         (H Int)
         (I Int)
         (J Int)
         (K Int)
         (L Int)
         (M Int)
         (N Int)
         (O Int)
         (P Int)
         (Q Int)
         (R Int)
         (S Int)
         (T Int)
         (Z Bool)
         (A1 (Array Int Int))
         (B1 Bool)
         (C1 (Array Int Int)))
  (let ((a!1 (and (not (<= R (+ 12 T))) (not (<= R S))))
        (a!2 (not (and (= D H) (= C G) Z (= B F)))))
  (let ((a!3 (and (or (not (= F 1)) a!2)
                  (or (= F 1)
                      (not (<= 0 I))
                      (not (= A 1))
                      (= A 0)
                      (not (Proc22 H A1 G P F B1))
                      a!2))))
  (let ((a!4 (not (or (not B1)
                      (not (= T S))
                      (not a!1)
                      (not (Proc0 R C1 Q P O B1 N T M L))
                      (not (<= 0 M))
                      (not (= K 1))
                      (= K 0)
                      (not (Proc21 L C1 Q P O B1 J P I H G A1 F))
                      a!3))))
    (=> (and a!4 (= Z (= E A1))) (Proc17 S C1 Q P O B1 D C E B)))))))
(assert (forall ((A Int) (B Int) (C Int) (D Int) (E (Array Int Int)) (Z Bool))
  (=> Z (Proc19 D E C B A Z))))
(assert (forall ((A Int) (B Int) (C Int) (D Int) (E (Array Int Int)) (Z Bool))
  (=> Z (Proc20 D E C B A Z))))
(assert (forall ((A Int) (B Int) (C Int) (D Int) (E (Array Int Int)) (Z Bool))
  (=> Z (Proc22 D E C B A Z))))
(assert (forall ((A Int)
         (B Int)
         (C Int)
         (D Int)
         (E (Array Int Int))
         (F Int)
         (G Int)
         (H Int)
         (I Int)
         (J Int)
         (K Int)
         (L Int)
         (M Int)
         (N Int)
         (O Int)
         (P Int)
         (Q Int)
         (R Int)
         (S Int)
         (T Int)
         (U Int)
         (V Int)
         (W Int)
         (X Int)
         (Y Int)
         (Z Bool)
         (I1 Int)
         (J1 Int)
         (K1 Int)
         (L1 Int)
         (M1 Int)
         (N1 Int)
         (P1 Int)
         (Q1 Int)
         (R1 Int)
         (S1 Int)
         (T1 Int)
         (V1 Int)
         (W1 Int)
         (X1 Int)
         (Y1 Int)
         (Z1 Int)
         (A2 Int)
         (B2 Int)
         (C2 Int)
         (D2 Int)
         (E2 Int)
         (F2 Int)
         (G2 Int)
         (H2 Int)
         (I2 Int)
         (J2 Int)
         (K2 Int)
         (L2 Int)
         (M2 Int))
  (let ((a!1 (and (= M2 L2)
                  (not (<= K2 (+ 4 M2)))
                  (not (<= K2 L2))
                  (= J2 K2)
                  (not (<= I2 (+ 332 J2)))
                  (not (<= I2 K2))
                  (= H2 I2)
                  (not (<= G2 (+ 4 H2)))))
        (a!2 (and (not (<= G2 I2))
                  (= F2 G2)
                  (not (<= E2 (+ 536 F2)))
                  (not (<= E2 G2))
                  (= D2 E2)
                  (not (<= C2 (+ 240 D2)))
                  (not (<= C2 E2))
                  (= B2 C2)
                  (not (<= A2 (+ 240 B2)))
                  (not (<= A2 C2))
                  (= Z1 A2)
                  (not (<= Y1 (+ 240 Z1)))
                  (not (<= Y1 A2))
                  (= X1 Y1)
                  (not (<= W1 (+ 4 X1)))
                  (not (<= W1 Y1))
                  (= V1 W1)
                  (not (<= T1 (+ 536 V1)))
                  (not (<= T1 W1))
                  (= S1 T1)
                  (not (<= R1 (+ 332 S1)))
                  (not (<= R1 T1))
                  (= Q1 R1)
                  (not (<= P1 (+ 240 Q1)))
                  (not (<= P1 R1))
                  (= N1 P1)
                  (not (<= M1 (+ 240 N1)))
                  (not (<= M1 P1))
                  (= L1 M1)
                  (not (<= K1 (+ 332 L1)))
                  (not (<= K1 M1))
                  (= J1 K1)
                  (not (<= I1 (+ 4 J1)))
                  (not (<= I1 K1))
                  (= Y I1)
                  (not (<= X (+ 68 Y)))
                  (not (<= X I1))
                  (= W X)
                  (not (<= V (+ 240 W)))
                  (not (<= V X))
                  (= U V)
                  (not (<= T (+ 240 U)))
                  (not (<= T V))
                  (= S T)
                  (not (<= R (+ 240 S)))
                  (not (<= R T))
                  (= Q R)
                  (not (<= P (+ 240 Q)))
                  (not (<= P R))
                  (= O P)
                  (not (<= N (+ 240 O)))
                  (not (<= N P))
                  (= M N)
                  (not (<= L (+ 40 M)))
                  (not (<= L N))
                  (= K L)
                  (not (<= J (+ 332 K)))
                  (not (<= J L))
                  (= I J)
                  (not (<= H (+ 4 I)))
                  (not (<= H J))
                  (= G H)
                  (not (<= F (+ 40 G)))
                  (not (<= F H)))))
  (let ((a!3 (not (or (not Z) (not a!1) (not a!2) (not (= D F))))))
    (=> a!3 (Proc16 L2 E C B A Z D))))))
(assert (forall ((A Int)
         (B Int)
         (C Int)
         (D Int)
         (E (Array Int Int))
         (F Int)
         (G Int)
         (H Int)
         (I Int)
         (J Int)
         (K Int)
         (L Int)
         (M Int)
         (N Int)
         (O Int)
         (Z Bool)
         (A1 (Array Int Int))
         (B1 Bool)
         (C1 (Array Int Int))
         (D1 Bool))
  (let ((a!1 (or (not D1)
                 (not (and (Proc18 O C1 N M L true K J I H B1 G A1) (not B1))))))
    (=> (not a!1) (Proc23 O C1 N M L D1 F Z D C B A E)))))
(assert (let ((a!1 (exists ((V0 Int)
                    (V1 (Array Int Int))
                    (V2 Int)
                    (V3 Int)
                    (V4 Int)
                    (V5 Bool)
                    (V6 Int)
                    (V7 Bool)
                    (V8 Int)
                    (V9 Int)
                    (V10 Int)
                    (V11 Int)
                    (V12 (Array Int Int)))
             (not (=> (and (Proc23 V0 V1 V2 V3 V4 V5 V6 V7 V8 V9 V10 V11 V12)
                           (not false))
                      false)))))
  (not a!1)))

(check-sat)
